WARNING: for repeatability, setting FPU to use double precision
============================[ Problem Statistics ]=============================
|                                                                             |
|  Number of variables:           100                                         |
|  Number of clauses:             449                                         |
|  Parse time:                   0.00 s                                       |
|  Eliminated clauses:           0.00 Mb                                      |
|  Simplification time:          0.00 s                                       |
|                                                                             |
============================[ Search Statistics ]==============================
| Conflicts |          ORIGINAL         |          LEARNT          | Progress |
|           |    Vars  Clauses Literals |    Limit  Clauses Lit/Cl |          |
===============================================================================
|       100 |      99      448     1348 |      164      100      7 |  0.010 % |
|       250 |      99      448     1348 |      180      164      6 |  0.031 % |
===============================================================================
restarts              : 3
conflicts             : 328            (87747 /sec)
decisions             : 383            (0.00 % random) (102461 /sec)
propagations          : 8027           (2147405 /sec)
conflict literals     : 2022           (22.91 % deleted)
Memory used           : 13.00 MB
CPU time              : 0.003738 s

SATISFIABLE
